benchmarks_vrp/att48_9.vrp
NAME: att48_9
TYPE: CVRP
COMMENT: (Rinaldi,Yarrow/Araque) - Cluster Nr.9
DIMENSION: 5
CAPACITY: 15
EDGE_WEIGHT_TYPE: ATT
NODE_COORD_TYPE: TWOD_COORDS
NODE_COORD_SECTION: 
2 6963 3782
3 6823 4674
1 6539 3513
4 7110 4369
5 6471 4275
DEPOT_SECTION: 
3
-1
DEMAND_SECTION: 
3 0
5 1
4 1
2 1
1 1
EOF
