benchmarks_vrp/att48_9.tour
NAME: att48_9 solution
TYPE: TOUR
TOUR_SECTION:
3 4 2 1 5 -1
-1
EOF